VER
4

OBJSENSE
MIN

VAR
7 1
F 7

CON
15 4
CRE 5
SVECQRE 7
L+ 1
L= 2

OBJACOORD
2
0 1.0
1 1.0

OBJBCOORD
0.5334951652730546

ACOORD
24
0 0 1.0
1 2 1.0
2 3 1.0
3 2 1.0
3 4 1.0
4 3 1.0
4 6 1.0
5 1 1.0
6 4 1.0
7 5 1.0
8 6 1.0
9 2 1.0
9 4 1.0
11 3 1.0
11 6 1.0
12 2 -1.0
12 3 -1.0
12 4 -0.7747319368207667
12 5 0.5908000725976772
12 6 -0.2252680631792331
13 3 1.0
13 4 1.0
14 2 1.0
14 6 1.0

BCOORD
3
12 -0.5
13 0.2252680631792333
14 0.7747319368207668
